proyfinal/src/viki/013/experimentInOfficeAgust.take6.output/a8868fc8-1918-4338-a520-946c0d982e2f.als.dat
{'cnf.clauses': '118081',
 'cnf.totvars': '69608',
 'conflict literals': '1182',
 'conflicts': '144',
 'decisions': '10974',
 'memused.mb': '16.18',
 'outcome': 'UNSAT',
 'propagations': '192291',
 'restarts': '2',
 'solver.msecs': 34,
 'task.msecs': 85}
