proyfinal/src/viki/013/experimentInOfficeAgust.take6.output/a8868fc8-1918-4338-a520-946c0d982e2f.als.out
Reading from standard input... Use '--help' for help.
============================[ Problem Statistics ]=============================
|                                                                             |
|  Number of variables:         69608                                         |
|  Number of clauses:          118081                                         |
|  Parse time:                   0.02 s                                       |
|                                                                             |
============================[ Search Statistics ]==============================
| Conflicts |          ORIGINAL         |          LEARNT          | Progress |
|           |    Vars  Clauses Literals |    Limit  Clauses Lit/Cl |          |
===============================================================================
|       100 |   55950    79211   196384 |    29044       94     10 | 19.621 % |
===============================================================================
restarts              : 2
conflicts             : 144            (4217 /sec)
decisions             : 10974          (0.00 % random) (321338 /sec)
propagations          : 192291         (5630611 /sec)
conflict literals     : 1182           (17.05 % deleted)
Memory used           : 16.18 MB
CPU time              : 0.034151 s

UNSATISFIABLE
